p cnf 7 25
5 2 0
-6 6 -5 5 0
-3 -2 3 -2 0
6 6 4 -4 -6 0
7 3 0
-5 3 -3 2 6 -3 0
-2 5 -3 0
4 0
-3 -7 2 2 4 0
6 7 1 -6 0
7 -1 2 4 0
-6 -6 7 -4 1 0
4 7 7 0
5 2 -1 2 0
5 -4 0
3 2 0
6 3 2 5 7 6 0
-5 -2 -5 6 0
-4 0
-2 -2 0
4 -4 -4 4 -4 -2 0
-3 4 -5 -7 0
2 -5 6 0
-1 -7 1 4 -6 0
-4 -5 6 -6 0